200
500
349
348
348
346
339
339
338
338
337
336
335
335
333
332
330
330
329
328
327
325
324
322
321
318
318
315
314
306
306
305
304
302
299
295
295
293
292
290
287
287
287
286
286
285
275
275
272
269
269
267
263
261
261
260
259
258
256
255
255
255
253
249
249
248
247
241
240
240
240
240
239
237
237
234
233
233
232
232
229
229
227
226
226
225
222
221
220
219
218
218
217
211
210
208
205
205
205
203
202
202
200
198
194
192
192
192
191
191
190
188
186
184
184
184
183
182
182
179
176
173
172
170
170
169
169
167
167
165
164
164
164
161
157
157
156
151
151
151
149
149
147
146
146
145
145
143
142
140
140
135
131
131
129
126
124
122
121
119
118
117
117
117
113
113
111
109
106
105
104
104
104
103
102
100
98
94
93
92
90
88
83
83
82
77
77
77
75
74
70
66
63
63
60
59
58
58
56
56
55
51
